c Reduced graph for 1-Insertions_4 generated by Cyril Grelier
p edge 67 232
e 1 32
e 1 47
e 1 48
e 1 49
e 1 50
e 1 51
e 1 52
e 1 53
e 1 54
e 1 55
e 1 56
e 1 57
e 1 58
e 1 59
e 1 60
e 1 61
e 1 62
e 1 63
e 1 64
e 1 65
e 1 66
e 1 67
e 2 33
e 2 34
e 2 35
e 2 36
e 2 37
e 2 38
e 2 39
e 2 40
e 2 41
e 2 42
e 2 43
e 2 44
e 2 45
e 2 46
e 3 33
e 3 34
e 3 35
e 3 36
e 3 37
e 3 38
e 3 39
e 3 61
e 3 62
e 3 63
e 3 64
e 3 65
e 3 66
e 3 67
e 4 5
e 4 7
e 4 12
e 4 14
e 4 19
e 4 21
e 4 26
e 4 28
e 5 6
e 5 11
e 5 13
e 5 18
e 5 20
e 5 25
e 5 27
e 6 9
e 6 12
e 6 16
e 6 19
e 6 23
e 6 26
e 6 30
e 7 8
e 7 11
e 7 15
e 7 18
e 7 22
e 7 25
e 7 29
e 8 10
e 8 14
e 8 17
e 8 21
e 8 24
e 8 28
e 8 31
e 9 10
e 9 13
e 9 17
e 9 20
e 9 24
e 9 27
e 9 31
e 10 15
e 10 16
e 10 22
e 10 23
e 10 29
e 10 30
e 11 19
e 11 21
e 11 34
e 11 36
e 11 41
e 11 43
e 12 18
e 12 20
e 12 33
e 12 35
e 12 40
e 12 42
e 13 19
e 13 23
e 13 34
e 13 38
e 13 41
e 13 45
e 14 18
e 14 22
e 14 33
e 14 37
e 14 40
e 14 44
e 15 21
e 15 24
e 15 36
e 15 39
e 15 43
e 15 46
e 16 20
e 16 24
e 16 35
e 16 39
e 16 42
e 16 46
e 17 22
e 17 23
e 17 37
e 17 38
e 17 44
e 17 45
e 18 48
e 18 50
e 18 55
e 18 57
e 19 47
e 19 49
e 19 54
e 19 56
e 20 48
e 20 52
e 20 55
e 20 59
e 21 47
e 21 51
e 21 54
e 21 58
e 22 50
e 22 53
e 22 57
e 22 60
e 23 49
e 23 53
e 23 56
e 23 60
e 24 51
e 24 52
e 24 58
e 24 59
e 25 34
e 25 36
e 25 48
e 25 50
e 25 62
e 25 64
e 26 33
e 26 35
e 26 47
e 26 49
e 26 61
e 26 63
e 27 34
e 27 38
e 27 48
e 27 52
e 27 62
e 27 66
e 28 33
e 28 37
e 28 47
e 28 51
e 28 61
e 28 65
e 29 36
e 29 39
e 29 50
e 29 53
e 29 64
e 29 67
e 30 35
e 30 39
e 30 49
e 30 53
e 30 63
e 30 67
e 31 37
e 31 38
e 31 51
e 31 52
e 31 65
e 31 66
e 32 40
e 32 41
e 32 42
e 32 43
e 32 44
e 32 45
e 32 46
e 40 55
e 40 57
e 41 54
e 41 56
e 42 55
e 42 59
e 43 54
e 43 58
e 44 57
e 44 60
e 45 56
e 45 60
e 46 58
e 46 59
